NAME : A-n53-k7.655187.tour
COMMENT : Length = 655187
COMMENT : Found by LKH [Keld Helsgaun] Sun Dec 17 18:40:46 2017
TYPE : TOUR
DIMENSION : 59
TOUR_SECTION
1
26
15
22
35
53
14
59
52
47
9
28
36
57
31
45
38
3
37
51
44
24
43
55
48
10
18
42
25
12
58
32
39
19
41
27
11
30
50
56
2
5
29
23
8
13
46
49
17
33
20
16
54
40
6
4
34
21
7
-1
EOF
